webassembly/ejemplos_dzn/folder11_json_74.dzn
TERM = { '.', 's(2)', 'in_1', 'local_0', 'local_1', 'in_6', 'in_2', 'in_4', 'in_3', 's(1)', 's(0)', 'in_7', 'in_5', 's(3)', 'in_0'};
null = '.';
s = 11;
n = 13;
ndeps = 4;
max_registers_sz = 4;
NR = 1;
registers = [|'local_1', 'in_1'|];
dependencies = [|'i32.store8_2', 'i32.store16_5', |'i32.store16_5', 'i32.store_6', |'i32.store_6', 'i32.load16_s_8', |'i32.store_6', 'i32.load16_s_9'|];
GET_ENUM = { GET1, GET2, GET3, GET4, GET5};
SET_ENUM = { SET1, SET2, SET3, SET4, SET5};
TEE_ENUM = { TEE1, TEE2, TEE3, TEE4, TEE5};
N = 8;
OP = { 'i32.store8_2', 'i32.add_0', 'i32.store16_5', 'i32.store_6', 'i32.const_0', 'i32.load16_s_8', 'i32.load16_s_9', 'local.get_0' };
in_ops = [2, 2, 2, 2, 0, 1, 1, 0 ];
out_ops = [0, 1, 0, 0, 1, 1, 1, 1 ];
in1 = ['in_2', 'in_4', 'in_1', 'in_6', '.', 's(3)', 's(1)', '.' ];
in2 = ['in_3', 'in_5', 's(0)', 'in_7', '.', '.', '.', '.' ];
in3 = ['.', '.', '.', '.', '.', '.', '.', '.' ];
out1 = ['.', 's(0)', '.', '.', 's(3)', 's(1)', 's(2)', 'local_0' ];
out2 = ['.', '.', '.', '.', '.', '.', '.', '.' ];
out3 = ['.', '.', '.', '.', '.', '.', '.', '.' ];
comm = [false, true, false, false, false, false, false, false ];
gas = [1, 1, 1, 1, 1, 1, 1, 1 ];
sz = [1, 1, 1, 1, 1, 1, 1, 1 ];
stor = [true, false, true, true, false, false, false, false ];
lb = [ 1, 1, 1, 1, 1, 1, 1, 1 ];
ub = [ 11, 11, 11, 11, 11, 11, 11, 11 ];
startstack = [ 'in_0', 'in_1', 'in_2', 'in_3', 'in_4', 'in_5', 'in_6', 'in_7', null, null, null, null, null ];
endstack = [ 'local_0', 's(2)', null, null, null, null, null, null, null, null, null, null, null ];
