webassembly/ejemplos_results/11/folder11_json_74.txt
value = 11;
fgas = [2, 1, 1, 1, 1, 1, 1, 1, 1, 1, 1];
fsize = [1, 1, 1, 1, 1, 1, 1, 1, 1, 1, 1];
states = 
[|    in_0,   in_1, in_2, in_3, in_4, in_5, in_6, in_7, '.', '.', '.', '.', '.'
 |    in_1,   in_2, in_3, in_4, in_5, in_6, in_7,  '.', '.', '.', '.', '.', '.'
 |    in_2,   in_3, in_4, in_5, in_6, in_7,  '.',  '.', '.', '.', '.', '.', '.'
 |    in_1, 's(0)', in_6, in_7,  '.',  '.',  '.',  '.', '.', '.', '.', '.', '.'
 |    in_6,   in_7,  '.',  '.',  '.',  '.',  '.',  '.', '.', '.', '.', '.', '.'
 |    in_4,   in_5,  '.',  '.',  '.',  '.',  '.',  '.', '.', '.', '.', '.', '.'
 |  's(0)',    '.',  '.',  '.',  '.',  '.',  '.',  '.', '.', '.', '.', '.', '.'
 |     '.',    '.',  '.',  '.',  '.',  '.',  '.',  '.', '.', '.', '.', '.', '.'
 |  's(3)',    '.',  '.',  '.',  '.',  '.',  '.',  '.', '.', '.', '.', '.', '.'
 |  's(1)',    '.',  '.',  '.',  '.',  '.',  '.',  '.', '.', '.', '.', '.', '.'
 |  's(2)',    '.',  '.',  '.',  '.',  '.',  '.',  '.', '.', '.', '.', '.', '.'
 | local_0, 's(2)',  '.',  '.',  '.',  '.',  '.',  '.', '.', '.', '.', '.', '.'
 |];
register_states = 
[| local_1, '.', '.', '.', '.'
 | local_1, '.', '.', '.', '.'
 |    in_1, '.', '.', '.', '.'
 |    in_1, '.', '.', '.', '.'
 |    in_1, '.', '.', '.', '.'
 |    in_1, '.', '.', '.', '.'
 |    in_1, '.', '.', '.', '.'
 |    in_1, '.', '.', '.', '.'
 |    in_1, '.', '.', '.', '.'
 |    in_1, '.', '.', '.', '.'
 |    in_1, '.', '.', '.', '.'
 |    in_1, '.', '.', '.', '.'
 |];
program = [POP, S(SET1), O('i32.store8_2'), O('i32.store16_5'), O('i32.store_6'), O('i32.add_0'), G(GET5), O('i32.const_0'), O('i32.load16_s_8'), O('i32.load16_s_9'), O('local.get_0')];
% time elapsed: 0.38 s
----------
==========
% time elapsed: 0.41 s
% [value > 10]
